db/data/14020636326018115002305520064683422281.z3.out
solvers/z3/run.sh: line 2: 156364 Killed                  z3 -smt2 $1
-------------------
81.835368610
